TCS_Benchmarks/redos_fix/regexlib2_output_distinct_3019_3018_24_0.smt2
(set-logic QF_S)
(declare-const x String)
(assert (str.in.re x (re.inter  (re.++ (re.* (re.comp  (re.union  (str.to.re "\u{3c}")  (str.to.re "\u{3e}"))) ) (re.* (re.union (re.range "\u{09}" "\u{0d}") (re.range "\u{20}" "\u{20}") (re.range "\u{85}" "\u{85}") (re.range "\u{a0}" "\u{a0}")) ))  (re.++ (re.* (re.comp  (re.union  (str.to.re "\u{3c}")  (str.to.re "\u{3e}"))) ) (re.++  (re.++  (str.to.re "\u{6e}") (re.++  (str.to.re "\u{61}") (re.++  (str.to.re "\u{6d}") (re.++  (str.to.re "\u{65}") (re.++ (re.* (re.union (re.range "\u{09}" "\u{0d}") (re.range "\u{20}" "\u{20}") (re.range "\u{85}" "\u{85}") (re.range "\u{a0}" "\u{a0}")) ) (re.++  (str.to.re "\u{3d}") (re.++ (re.* (re.union (re.range "\u{09}" "\u{0d}") (re.range "\u{20}" "\u{20}") (re.range "\u{85}" "\u{85}") (re.range "\u{a0}" "\u{a0}")) ) (re.++  (str.to.re "\u{22}") (re.++  (str.to.re "\u{6d}") (re.++  (str.to.re "\u{6f}") (re.++  (str.to.re "\u{76}") (re.++  (str.to.re "\u{69}") (re.++  (str.to.re "\u{65}") (re.++  (str.to.re "\u{22}") (re.++ (re.* (re.comp  (re.union  (str.to.re "\u{3c}")  (str.to.re "\u{3e}"))) ) (re.++  (str.to.re "\u{76}") (re.++  (str.to.re "\u{61}") (re.++  (str.to.re "\u{6c}") (re.++  (str.to.re "\u{75}")  (str.to.re "\u{65}")))))))))))))))))))) (re.* (re.union (re.range "\u{09}" "\u{0d}") (re.range "\u{20}" "\u{20}") (re.range "\u{85}" "\u{85}") (re.range "\u{a0}" "\u{a0}")) ))) )))
(check-sat)
(get-model)