TCS_Benchmarks/redos_fix/regexlib2_output_distinct_3019_3018_24_0.txt
([^<>]*)(\s*)
([^<>]*)(name\s*=\s*"movie"[^<>]*value)(\s*)